c created by edge2cnf
p cnf 500 3100
-1 -2 0
-1 -3 0
-1 -4 0
-1 -5 0
-2 -3 0
-2 -4 0
-2 -5 0
-3 -4 0
-3 -5 0
-4 -5 0
1 2 3 4 5 0
-6 -7 0
-6 -8 0
-6 -9 0
-6 -10 0
-7 -8 0
-7 -9 0
-7 -10 0
-8 -9 0
-8 -10 0
-9 -10 0
6 7 8 9 10 0
-11 -12 0
-11 -13 0
-11 -14 0
-11 -15 0
-12 -13 0
-12 -14 0
-12 -15 0
-13 -14 0
-13 -15 0
-14 -15 0
11 12 13 14 15 0
-16 -17 0
-16 -18 0
-16 -19 0
-16 -20 0
-17 -18 0
-17 -19 0
-17 -20 0
-18 -19 0
-18 -20 0
-19 -20 0
16 17 18 19 20 0
-21 -22 0
-21 -23 0
-21 -24 0
-21 -25 0
-22 -23 0
-22 -24 0
-22 -25 0
-23 -24 0
-23 -25 0
-24 -25 0
21 22 23 24 25 0
-26 -27 0
-26 -28 0
-26 -29 0
-26 -30 0
-27 -28 0
-27 -29 0
-27 -30 0
-28 -29 0
-28 -30 0
-29 -30 0
26 27 28 29 30 0
-31 -32 0
-31 -33 0
-31 -34 0
-31 -35 0
-32 -33 0
-32 -34 0
-32 -35 0
-33 -34 0
-33 -35 0
-34 -35 0
31 32 33 34 35 0
-36 -37 0
-36 -38 0
-36 -39 0
-36 -40 0
-37 -38 0
-37 -39 0
-37 -40 0
-38 -39 0
-38 -40 0
-39 -40 0
36 37 38 39 40 0
-41 -42 0
-41 -43 0
-41 -44 0
-41 -45 0
-42 -43 0
-42 -44 0
-42 -45 0
-43 -44 0
-43 -45 0
-44 -45 0
41 42 43 44 45 0
-46 -47 0
-46 -48 0
-46 -49 0
-46 -50 0
-47 -48 0
-47 -49 0
-47 -50 0
-48 -49 0
-48 -50 0
-49 -50 0
46 47 48 49 50 0
-51 -52 0
-51 -53 0
-51 -54 0
-51 -55 0
-52 -53 0
-52 -54 0
-52 -55 0
-53 -54 0
-53 -55 0
-54 -55 0
51 52 53 54 55 0
-56 -57 0
-56 -58 0
-56 -59 0
-56 -60 0
-57 -58 0
-57 -59 0
-57 -60 0
-58 -59 0
-58 -60 0
-59 -60 0
56 57 58 59 60 0
-61 -62 0
-61 -63 0
-61 -64 0
-61 -65 0
-62 -63 0
-62 -64 0
-62 -65 0
-63 -64 0
-63 -65 0
-64 -65 0
61 62 63 64 65 0
-66 -67 0
-66 -68 0
-66 -69 0
-66 -70 0
-67 -68 0
-67 -69 0
-67 -70 0
-68 -69 0
-68 -70 0
-69 -70 0
66 67 68 69 70 0
-71 -72 0
-71 -73 0
-71 -74 0
-71 -75 0
-72 -73 0
-72 -74 0
-72 -75 0
-73 -74 0
-73 -75 0
-74 -75 0
71 72 73 74 75 0
-76 -77 0
-76 -78 0
-76 -79 0
-76 -80 0
-77 -78 0
-77 -79 0
-77 -80 0
-78 -79 0
-78 -80 0
-79 -80 0
76 77 78 79 80 0
-81 -82 0
-81 -83 0
-81 -84 0
-81 -85 0
-82 -83 0
-82 -84 0
-82 -85 0
-83 -84 0
-83 -85 0
-84 -85 0
81 82 83 84 85 0
-86 -87 0
-86 -88 0
-86 -89 0
-86 -90 0
-87 -88 0
-87 -89 0
-87 -90 0
-88 -89 0
-88 -90 0
-89 -90 0
86 87 88 89 90 0
-91 -92 0
-91 -93 0
-91 -94 0
-91 -95 0
-92 -93 0
-92 -94 0
-92 -95 0
-93 -94 0
-93 -95 0
-94 -95 0
91 92 93 94 95 0
-96 -97 0
-96 -98 0
-96 -99 0
-96 -100 0
-97 -98 0
-97 -99 0
-97 -100 0
-98 -99 0
-98 -100 0
-99 -100 0
96 97 98 99 100 0
-101 -102 0
-101 -103 0
-101 -104 0
-101 -105 0
-102 -103 0
-102 -104 0
-102 -105 0
-103 -104 0
-103 -105 0
-104 -105 0
101 102 103 104 105 0
-106 -107 0
-106 -108 0
-106 -109 0
-106 -110 0
-107 -108 0
-107 -109 0
-107 -110 0
-108 -109 0
-108 -110 0
-109 -110 0
106 107 108 109 110 0
-111 -112 0
-111 -113 0
-111 -114 0
-111 -115 0
-112 -113 0
-112 -114 0
-112 -115 0
-113 -114 0
-113 -115 0
-114 -115 0
111 112 113 114 115 0
-116 -117 0
-116 -118 0
-116 -119 0
-116 -120 0
-117 -118 0
-117 -119 0
-117 -120 0
-118 -119 0
-118 -120 0
-119 -120 0
116 117 118 119 120 0
-121 -122 0
-121 -123 0
-121 -124 0
-121 -125 0
-122 -123 0
-122 -124 0
-122 -125 0
-123 -124 0
-123 -125 0
-124 -125 0
121 122 123 124 125 0
-126 -127 0
-126 -128 0
-126 -129 0
-126 -130 0
-127 -128 0
-127 -129 0
-127 -130 0
-128 -129 0
-128 -130 0
-129 -130 0
126 127 128 129 130 0
-131 -132 0
-131 -133 0
-131 -134 0
-131 -135 0
-132 -133 0
-132 -134 0
-132 -135 0
-133 -134 0
-133 -135 0
-134 -135 0
131 132 133 134 135 0
-136 -137 0
-136 -138 0
-136 -139 0
-136 -140 0
-137 -138 0
-137 -139 0
-137 -140 0
-138 -139 0
-138 -140 0
-139 -140 0
136 137 138 139 140 0
-141 -142 0
-141 -143 0
-141 -144 0
-141 -145 0
-142 -143 0
-142 -144 0
-142 -145 0
-143 -144 0
-143 -145 0
-144 -145 0
141 142 143 144 145 0
-146 -147 0
-146 -148 0
-146 -149 0
-146 -150 0
-147 -148 0
-147 -149 0
-147 -150 0
-148 -149 0
-148 -150 0
-149 -150 0
146 147 148 149 150 0
-151 -152 0
-151 -153 0
-151 -154 0
-151 -155 0
-152 -153 0
-152 -154 0
-152 -155 0
-153 -154 0
-153 -155 0
-154 -155 0
151 152 153 154 155 0
-156 -157 0
-156 -158 0
-156 -159 0
-156 -160 0
-157 -158 0
-157 -159 0
-157 -160 0
-158 -159 0
-158 -160 0
-159 -160 0
156 157 158 159 160 0
-161 -162 0
-161 -163 0
-161 -164 0
-161 -165 0
-162 -163 0
-162 -164 0
-162 -165 0
-163 -164 0
-163 -165 0
-164 -165 0
161 162 163 164 165 0
-166 -167 0
-166 -168 0
-166 -169 0
-166 -170 0
-167 -168 0
-167 -169 0
-167 -170 0
-168 -169 0
-168 -170 0
-169 -170 0
166 167 168 169 170 0
-171 -172 0
-171 -173 0
-171 -174 0
-171 -175 0
-172 -173 0
-172 -174 0
-172 -175 0
-173 -174 0
-173 -175 0
-174 -175 0
171 172 173 174 175 0
-176 -177 0
-176 -178 0
-176 -179 0
-176 -180 0
-177 -178 0
-177 -179 0
-177 -180 0
-178 -179 0
-178 -180 0
-179 -180 0
176 177 178 179 180 0
-181 -182 0
-181 -183 0
-181 -184 0
-181 -185 0
-182 -183 0
-182 -184 0
-182 -185 0
-183 -184 0
-183 -185 0
-184 -185 0
181 182 183 184 185 0
-186 -187 0
-186 -188 0
-186 -189 0
-186 -190 0
-187 -188 0
-187 -189 0
-187 -190 0
-188 -189 0
-188 -190 0
-189 -190 0
186 187 188 189 190 0
-191 -192 0
-191 -193 0
-191 -194 0
-191 -195 0
-192 -193 0
-192 -194 0
-192 -195 0
-193 -194 0
-193 -195 0
-194 -195 0
191 192 193 194 195 0
-196 -197 0
-196 -198 0
-196 -199 0
-196 -200 0
-197 -198 0
-197 -199 0
-197 -200 0
-198 -199 0
-198 -200 0
-199 -200 0
196 197 198 199 200 0
-201 -202 0
-201 -203 0
-201 -204 0
-201 -205 0
-202 -203 0
-202 -204 0
-202 -205 0
-203 -204 0
-203 -205 0
-204 -205 0
201 202 203 204 205 0
-206 -207 0
-206 -208 0
-206 -209 0
-206 -210 0
-207 -208 0
-207 -209 0
-207 -210 0
-208 -209 0
-208 -210 0
-209 -210 0
206 207 208 209 210 0
-211 -212 0
-211 -213 0
-211 -214 0
-211 -215 0
-212 -213 0
-212 -214 0
-212 -215 0
-213 -214 0
-213 -215 0
-214 -215 0
211 212 213 214 215 0
-216 -217 0
-216 -218 0
-216 -219 0
-216 -220 0
-217 -218 0
-217 -219 0
-217 -220 0
-218 -219 0
-218 -220 0
-219 -220 0
216 217 218 219 220 0
-221 -222 0
-221 -223 0
-221 -224 0
-221 -225 0
-222 -223 0
-222 -224 0
-222 -225 0
-223 -224 0
-223 -225 0
-224 -225 0
221 222 223 224 225 0
-226 -227 0
-226 -228 0
-226 -229 0
-226 -230 0
-227 -228 0
-227 -229 0
-227 -230 0
-228 -229 0
-228 -230 0
-229 -230 0
226 227 228 229 230 0
-231 -232 0
-231 -233 0
-231 -234 0
-231 -235 0
-232 -233 0
-232 -234 0
-232 -235 0
-233 -234 0
-233 -235 0
-234 -235 0
231 232 233 234 235 0
-236 -237 0
-236 -238 0
-236 -239 0
-236 -240 0
-237 -238 0
-237 -239 0
-237 -240 0
-238 -239 0
-238 -240 0
-239 -240 0
236 237 238 239 240 0
-241 -242 0
-241 -243 0
-241 -244 0
-241 -245 0
-242 -243 0
-242 -244 0
-242 -245 0
-243 -244 0
-243 -245 0
-244 -245 0
241 242 243 244 245 0
-246 -247 0
-246 -248 0
-246 -249 0
-246 -250 0
-247 -248 0
-247 -249 0
-247 -250 0
-248 -249 0
-248 -250 0
-249 -250 0
246 247 248 249 250 0
-251 -252 0
-251 -253 0
-251 -254 0
-251 -255 0
-252 -253 0
-252 -254 0
-252 -255 0
-253 -254 0
-253 -255 0
-254 -255 0
251 252 253 254 255 0
-256 -257 0
-256 -258 0
-256 -259 0
-256 -260 0
-257 -258 0
-257 -259 0
-257 -260 0
-258 -259 0
-258 -260 0
-259 -260 0
256 257 258 259 260 0
-261 -262 0
-261 -263 0
-261 -264 0
-261 -265 0
-262 -263 0
-262 -264 0
-262 -265 0
-263 -264 0
-263 -265 0
-264 -265 0
261 262 263 264 265 0
-266 -267 0
-266 -268 0
-266 -269 0
-266 -270 0
-267 -268 0
-267 -269 0
-267 -270 0
-268 -269 0
-268 -270 0
-269 -270 0
266 267 268 269 270 0
-271 -272 0
-271 -273 0
-271 -274 0
-271 -275 0
-272 -273 0
-272 -274 0
-272 -275 0
-273 -274 0
-273 -275 0
-274 -275 0
271 272 273 274 275 0
-276 -277 0
-276 -278 0
-276 -279 0
-276 -280 0
-277 -278 0
-277 -279 0
-277 -280 0
-278 -279 0
-278 -280 0
-279 -280 0
276 277 278 279 280 0
-281 -282 0
-281 -283 0
-281 -284 0
-281 -285 0
-282 -283 0
-282 -284 0
-282 -285 0
-283 -284 0
-283 -285 0
-284 -285 0
281 282 283 284 285 0
-286 -287 0
-286 -288 0
-286 -289 0
-286 -290 0
-287 -288 0
-287 -289 0
-287 -290 0
-288 -289 0
-288 -290 0
-289 -290 0
286 287 288 289 290 0
-291 -292 0
-291 -293 0
-291 -294 0
-291 -295 0
-292 -293 0
-292 -294 0
-292 -295 0
-293 -294 0
-293 -295 0
-294 -295 0
291 292 293 294 295 0
-296 -297 0
-296 -298 0
-296 -299 0
-296 -300 0
-297 -298 0
-297 -299 0
-297 -300 0
-298 -299 0
-298 -300 0
-299 -300 0
296 297 298 299 300 0
-301 -302 0
-301 -303 0
-301 -304 0
-301 -305 0
-302 -303 0
-302 -304 0
-302 -305 0
-303 -304 0
-303 -305 0
-304 -305 0
301 302 303 304 305 0
-306 -307 0
-306 -308 0
-306 -309 0
-306 -310 0
-307 -308 0
-307 -309 0
-307 -310 0
-308 -309 0
-308 -310 0
-309 -310 0
306 307 308 309 310 0
-311 -312 0
-311 -313 0
-311 -314 0
-311 -315 0
-312 -313 0
-312 -314 0
-312 -315 0
-313 -314 0
-313 -315 0
-314 -315 0
311 312 313 314 315 0
-316 -317 0
-316 -318 0
-316 -319 0
-316 -320 0
-317 -318 0
-317 -319 0
-317 -320 0
-318 -319 0
-318 -320 0
-319 -320 0
316 317 318 319 320 0
-321 -322 0
-321 -323 0
-321 -324 0
-321 -325 0
-322 -323 0
-322 -324 0
-322 -325 0
-323 -324 0
-323 -325 0
-324 -325 0
321 322 323 324 325 0
-326 -327 0
-326 -328 0
-326 -329 0
-326 -330 0
-327 -328 0
-327 -329 0
-327 -330 0
-328 -329 0
-328 -330 0
-329 -330 0
326 327 328 329 330 0
-331 -332 0
-331 -333 0
-331 -334 0
-331 -335 0
-332 -333 0
-332 -334 0
-332 -335 0
-333 -334 0
-333 -335 0
-334 -335 0
331 332 333 334 335 0
-336 -337 0
-336 -338 0
-336 -339 0
-336 -340 0
-337 -338 0
-337 -339 0
-337 -340 0
-338 -339 0
-338 -340 0
-339 -340 0
336 337 338 339 340 0
-341 -342 0
-341 -343 0
-341 -344 0
-341 -345 0
-342 -343 0
-342 -344 0
-342 -345 0
-343 -344 0
-343 -345 0
-344 -345 0
341 342 343 344 345 0
-346 -347 0
-346 -348 0
-346 -349 0
-346 -350 0
-347 -348 0
-347 -349 0
-347 -350 0
-348 -349 0
-348 -350 0
-349 -350 0
346 347 348 349 350 0
-351 -352 0
-351 -353 0
-351 -354 0
-351 -355 0
-352 -353 0
-352 -354 0
-352 -355 0
-353 -354 0
-353 -355 0
-354 -355 0
351 352 353 354 355 0
-356 -357 0
-356 -358 0
-356 -359 0
-356 -360 0
-357 -358 0
-357 -359 0
-357 -360 0
-358 -359 0
-358 -360 0
-359 -360 0
356 357 358 359 360 0
-361 -362 0
-361 -363 0
-361 -364 0
-361 -365 0
-362 -363 0
-362 -364 0
-362 -365 0
-363 -364 0
-363 -365 0
-364 -365 0
361 362 363 364 365 0
-366 -367 0
-366 -368 0
-366 -369 0
-366 -370 0
-367 -368 0
-367 -369 0
-367 -370 0
-368 -369 0
-368 -370 0
-369 -370 0
366 367 368 369 370 0
-371 -372 0
-371 -373 0
-371 -374 0
-371 -375 0
-372 -373 0
-372 -374 0
-372 -375 0
-373 -374 0
-373 -375 0
-374 -375 0
371 372 373 374 375 0
-376 -377 0
-376 -378 0
-376 -379 0
-376 -380 0
-377 -378 0
-377 -379 0
-377 -380 0
-378 -379 0
-378 -380 0
-379 -380 0
376 377 378 379 380 0
-381 -382 0
-381 -383 0
-381 -384 0
-381 -385 0
-382 -383 0
-382 -384 0
-382 -385 0
-383 -384 0
-383 -385 0
-384 -385 0
381 382 383 384 385 0
-386 -387 0
-386 -388 0
-386 -389 0
-386 -390 0
-387 -388 0
-387 -389 0
-387 -390 0
-388 -389 0
-388 -390 0
-389 -390 0
386 387 388 389 390 0
-391 -392 0
-391 -393 0
-391 -394 0
-391 -395 0
-392 -393 0
-392 -394 0
-392 -395 0
-393 -394 0
-393 -395 0
-394 -395 0
391 392 393 394 395 0
-396 -397 0
-396 -398 0
-396 -399 0
-396 -400 0
-397 -398 0
-397 -399 0
-397 -400 0
-398 -399 0
-398 -400 0
-399 -400 0
396 397 398 399 400 0
-401 -402 0
-401 -403 0
-401 -404 0
-401 -405 0
-402 -403 0
-402 -404 0
-402 -405 0
-403 -404 0
-403 -405 0
-404 -405 0
401 402 403 404 405 0
-406 -407 0
-406 -408 0
-406 -409 0
-406 -410 0
-407 -408 0
-407 -409 0
-407 -410 0
-408 -409 0
-408 -410 0
-409 -410 0
406 407 408 409 410 0
-411 -412 0
-411 -413 0
-411 -414 0
-411 -415 0
-412 -413 0
-412 -414 0
-412 -415 0
-413 -414 0
-413 -415 0
-414 -415 0
411 412 413 414 415 0
-416 -417 0
-416 -418 0
-416 -419 0
-416 -420 0
-417 -418 0
-417 -419 0
-417 -420 0
-418 -419 0
-418 -420 0
-419 -420 0
416 417 418 419 420 0
-421 -422 0
-421 -423 0
-421 -424 0
-421 -425 0
-422 -423 0
-422 -424 0
-422 -425 0
-423 -424 0
-423 -425 0
-424 -425 0
421 422 423 424 425 0
-426 -427 0
-426 -428 0
-426 -429 0
-426 -430 0
-427 -428 0
-427 -429 0
-427 -430 0
-428 -429 0
-428 -430 0
-429 -430 0
426 427 428 429 430 0
-431 -432 0
-431 -433 0
-431 -434 0
-431 -435 0
-432 -433 0
-432 -434 0
-432 -435 0
-433 -434 0
-433 -435 0
-434 -435 0
431 432 433 434 435 0
-436 -437 0
-436 -438 0
-436 -439 0
-436 -440 0
-437 -438 0
-437 -439 0
-437 -440 0
-438 -439 0
-438 -440 0
-439 -440 0
436 437 438 439 440 0
-441 -442 0
-441 -443 0
-441 -444 0
-441 -445 0
-442 -443 0
-442 -444 0
-442 -445 0
-443 -444 0
-443 -445 0
-444 -445 0
441 442 443 444 445 0
-446 -447 0
-446 -448 0
-446 -449 0
-446 -450 0
-447 -448 0
-447 -449 0
-447 -450 0
-448 -449 0
-448 -450 0
-449 -450 0
446 447 448 449 450 0
-451 -452 0
-451 -453 0
-451 -454 0
-451 -455 0
-452 -453 0
-452 -454 0
-452 -455 0
-453 -454 0
-453 -455 0
-454 -455 0
451 452 453 454 455 0
-456 -457 0
-456 -458 0
-456 -459 0
-456 -460 0
-457 -458 0
-457 -459 0
-457 -460 0
-458 -459 0
-458 -460 0
-459 -460 0
456 457 458 459 460 0
-461 -462 0
-461 -463 0
-461 -464 0
-461 -465 0
-462 -463 0
-462 -464 0
-462 -465 0
-463 -464 0
-463 -465 0
-464 -465 0
461 462 463 464 465 0
-466 -467 0
-466 -468 0
-466 -469 0
-466 -470 0
-467 -468 0
-467 -469 0
-467 -470 0
-468 -469 0
-468 -470 0
-469 -470 0
466 467 468 469 470 0
-471 -472 0
-471 -473 0
-471 -474 0
-471 -475 0
-472 -473 0
-472 -474 0
-472 -475 0
-473 -474 0
-473 -475 0
-474 -475 0
471 472 473 474 475 0
-476 -477 0
-476 -478 0
-476 -479 0
-476 -480 0
-477 -478 0
-477 -479 0
-477 -480 0
-478 -479 0
-478 -480 0
-479 -480 0
476 477 478 479 480 0
-481 -482 0
-481 -483 0
-481 -484 0
-481 -485 0
-482 -483 0
-482 -484 0
-482 -485 0
-483 -484 0
-483 -485 0
-484 -485 0
481 482 483 484 485 0
-486 -487 0
-486 -488 0
-486 -489 0
-486 -490 0
-487 -488 0
-487 -489 0
-487 -490 0
-488 -489 0
-488 -490 0
-489 -490 0
486 487 488 489 490 0
-491 -492 0
-491 -493 0
-491 -494 0
-491 -495 0
-492 -493 0
-492 -494 0
-492 -495 0
-493 -494 0
-493 -495 0
-494 -495 0
491 492 493 494 495 0
-496 -497 0
-496 -498 0
-496 -499 0
-496 -500 0
-497 -498 0
-497 -499 0
-497 -500 0
-498 -499 0
-498 -500 0
-499 -500 0
496 497 498 499 500 0
-21 -36 0
-22 -37 0
-23 -38 0
-24 -39 0
-25 -40 0
-31 -51 0
-32 -52 0
-33 -53 0
-34 -54 0
-35 -55 0
-36 -51 0
-37 -52 0
-38 -53 0
-39 -54 0
-40 -55 0
-41 -51 0
-42 -52 0
-43 -53 0
-44 -54 0
-45 -55 0
-66 -81 0
-67 -82 0
-68 -83 0
-69 -84 0
-70 -85 0
-101 -116 0
-102 -117 0
-103 -118 0
-104 -119 0
-105 -120 0
-111 -131 0
-112 -132 0
-113 -133 0
-114 -134 0
-115 -135 0
-126 -136 0
-127 -137 0
-128 -138 0
-129 -139 0
-130 -140 0
-136 -146 0
-137 -147 0
-138 -148 0
-139 -149 0
-140 -150 0
-146 -161 0
-147 -162 0
-148 -163 0
-149 -164 0
-150 -165 0
-151 -156 0
-152 -157 0
-153 -158 0
-154 -159 0
-155 -160 0
-161 -166 0
-162 -167 0
-163 -168 0
-164 -169 0
-165 -170 0
-166 -176 0
-167 -177 0
-168 -178 0
-169 -179 0
-170 -180 0
-201 -206 0
-202 -207 0
-203 -208 0
-204 -209 0
-205 -210 0
-206 -221 0
-207 -222 0
-208 -223 0
-209 -224 0
-210 -225 0
-231 -236 0
-232 -237 0
-233 -238 0
-234 -239 0
-235 -240 0
-231 -251 0
-232 -252 0
-233 -253 0
-234 -254 0
-235 -255 0
-236 -241 0
-237 -242 0
-238 -243 0
-239 -244 0
-240 -245 0
-236 -246 0
-237 -247 0
-238 -248 0
-239 -249 0
-240 -250 0
-246 -256 0
-247 -257 0
-248 -258 0
-249 -259 0
-250 -260 0
-251 -266 0
-252 -267 0
-253 -268 0
-254 -269 0
-255 -270 0
-271 -291 0
-272 -292 0
-273 -293 0
-274 -294 0
-275 -295 0
-276 -286 0
-277 -287 0
-278 -288 0
-279 -289 0
-280 -290 0
-281 -296 0
-282 -297 0
-283 -298 0
-284 -299 0
-285 -300 0
-341 -346 0
-342 -347 0
-343 -348 0
-344 -349 0
-345 -350 0
-341 -351 0
-342 -352 0
-343 -353 0
-344 -354 0
-345 -355 0
-341 -356 0
-342 -357 0
-343 -358 0
-344 -359 0
-345 -360 0
-351 -356 0
-352 -357 0
-353 -358 0
-354 -359 0
-355 -360 0
-351 -366 0
-352 -367 0
-353 -368 0
-354 -369 0
-355 -370 0
-361 -376 0
-362 -377 0
-363 -378 0
-364 -379 0
-365 -380 0
-371 -381 0
-372 -382 0
-373 -383 0
-374 -384 0
-375 -385 0
-411 -431 0
-412 -432 0
-413 -433 0
-414 -434 0
-415 -435 0
-426 -441 0
-427 -442 0
-428 -443 0
-429 -444 0
-430 -445 0
-436 -446 0
-437 -447 0
-438 -448 0
-439 -449 0
-440 -450 0
-476 -481 0
-477 -482 0
-478 -483 0
-479 -484 0
-480 -485 0
-486 -496 0
-487 -497 0
-488 -498 0
-489 -499 0
-490 -500 0
-1 -111 0
-2 -112 0
-3 -113 0
-4 -114 0
-5 -115 0
-1 -126 0
-2 -127 0
-3 -128 0
-4 -129 0
-5 -130 0
-1 -211 0
-2 -212 0
-3 -213 0
-4 -214 0
-5 -215 0
-1 -226 0
-2 -227 0
-3 -228 0
-4 -229 0
-5 -230 0
-1 -236 0
-2 -237 0
-3 -238 0
-4 -239 0
-5 -240 0
-1 -261 0
-2 -262 0
-3 -263 0
-4 -264 0
-5 -265 0
-1 -321 0
-2 -322 0
-3 -323 0
-4 -324 0
-5 -325 0
-1 -356 0
-2 -357 0
-3 -358 0
-4 -359 0
-5 -360 0
-1 -366 0
-2 -367 0
-3 -368 0
-4 -369 0
-5 -370 0
-1 -411 0
-2 -412 0
-3 -413 0
-4 -414 0
-5 -415 0
-6 -66 0
-7 -67 0
-8 -68 0
-9 -69 0
-10 -70 0
-6 -71 0
-7 -72 0
-8 -73 0
-9 -74 0
-10 -75 0
-6 -126 0
-7 -127 0
-8 -128 0
-9 -129 0
-10 -130 0
-6 -171 0
-7 -172 0
-8 -173 0
-9 -174 0
-10 -175 0
-6 -206 0
-7 -207 0
-8 -208 0
-9 -209 0
-10 -210 0
-6 -231 0
-7 -232 0
-8 -233 0
-9 -234 0
-10 -235 0
-6 -236 0
-7 -237 0
-8 -238 0
-9 -239 0
-10 -240 0
-6 -256 0
-7 -257 0
-8 -258 0
-9 -259 0
-10 -260 0
-6 -346 0
-7 -347 0
-8 -348 0
-9 -349 0
-10 -350 0
-6 -351 0
-7 -352 0
-8 -353 0
-9 -354 0
-10 -355 0
-6 -416 0
-7 -417 0
-8 -418 0
-9 -419 0
-10 -420 0
-11 -91 0
-12 -92 0
-13 -93 0
-14 -94 0
-15 -95 0
-11 -156 0
-12 -157 0
-13 -158 0
-14 -159 0
-15 -160 0
-11 -261 0
-12 -262 0
-13 -263 0
-14 -264 0
-15 -265 0
-11 -356 0
-12 -357 0
-13 -358 0
-14 -359 0
-15 -360 0
-16 -66 0
-17 -67 0
-18 -68 0
-19 -69 0
-20 -70 0
-16 -81 0
-17 -82 0
-18 -83 0
-19 -84 0
-20 -85 0
-16 -111 0
-17 -112 0
-18 -113 0
-19 -114 0
-20 -115 0
-16 -156 0
-17 -157 0
-18 -158 0
-19 -159 0
-20 -160 0
-16 -191 0
-17 -192 0
-18 -193 0
-19 -194 0
-20 -195 0
-16 -216 0
-17 -217 0
-18 -218 0
-19 -219 0
-20 -220 0
-16 -221 0
-17 -222 0
-18 -223 0
-19 -224 0
-20 -225 0
-16 -281 0
-17 -282 0
-18 -283 0
-19 -284 0
-20 -285 0
-16 -286 0
-17 -287 0
-18 -288 0
-19 -289 0
-20 -290 0
-16 -441 0
-17 -442 0
-18 -443 0
-19 -444 0
-20 -445 0
-16 -461 0
-17 -462 0
-18 -463 0
-19 -464 0
-20 -465 0
-21 -71 0
-22 -72 0
-23 -73 0
-24 -74 0
-25 -75 0
-21 -96 0
-22 -97 0
-23 -98 0
-24 -99 0
-25 -100 0
-21 -226 0
-22 -227 0
-23 -228 0
-24 -229 0
-25 -230 0
-21 -296 0
-22 -297 0
-23 -298 0
-24 -299 0
-25 -300 0
-21 -471 0
-22 -472 0
-23 -473 0
-24 -474 0
-25 -475 0
-26 -116 0
-27 -117 0
-28 -118 0
-29 -119 0
-30 -120 0
-26 -146 0
-27 -147 0
-28 -148 0
-29 -149 0
-30 -150 0
-26 -191 0
-27 -192 0
-28 -193 0
-29 -194 0
-30 -195 0
-26 -231 0
-27 -232 0
-28 -233 0
-29 -234 0
-30 -235 0
-26 -296 0
-27 -297 0
-28 -298 0
-29 -299 0
-30 -300 0
-26 -316 0
-27 -317 0
-28 -318 0
-29 -319 0
-30 -320 0
-26 -331 0
-27 -332 0
-28 -333 0
-29 -334 0
-30 -335 0
-26 -361 0
-27 -362 0
-28 -363 0
-29 -364 0
-30 -365 0
-26 -391 0
-27 -392 0
-28 -393 0
-29 -394 0
-30 -395 0
-31 -196 0
-32 -197 0
-33 -198 0
-34 -199 0
-35 -200 0
-31 -216 0
-32 -217 0
-33 -218 0
-34 -219 0
-35 -220 0
-31 -446 0
-32 -447 0
-33 -448 0
-34 -449 0
-35 -450 0
-31 -471 0
-32 -472 0
-33 -473 0
-34 -474 0
-35 -475 0
-36 -176 0
-37 -177 0
-38 -178 0
-39 -179 0
-40 -180 0
-36 -371 0
-37 -372 0
-38 -373 0
-39 -374 0
-40 -375 0
-36 -421 0
-37 -422 0
-38 -423 0
-39 -424 0
-40 -425 0
-36 -426 0
-37 -427 0
-38 -428 0
-39 -429 0
-40 -430 0
-41 -71 0
-42 -72 0
-43 -73 0
-44 -74 0
-45 -75 0
-41 -121 0
-42 -122 0
-43 -123 0
-44 -124 0
-45 -125 0
-41 -131 0
-42 -132 0
-43 -133 0
-44 -134 0
-45 -135 0
-41 -136 0
-42 -137 0
-43 -138 0
-44 -139 0
-45 -140 0
-41 -151 0
-42 -152 0
-43 -153 0
-44 -154 0
-45 -155 0
-41 -166 0
-42 -167 0
-43 -168 0
-44 -169 0
-45 -170 0
-46 -86 0
-47 -87 0
-48 -88 0
-49 -89 0
-50 -90 0
-46 -151 0
-47 -152 0
-48 -153 0
-49 -154 0
-50 -155 0
-46 -191 0
-47 -192 0
-48 -193 0
-49 -194 0
-50 -195 0
-46 -206 0
-47 -207 0
-48 -208 0
-49 -209 0
-50 -210 0
-46 -286 0
-47 -287 0
-48 -288 0
-49 -289 0
-50 -290 0
-46 -331 0
-47 -332 0
-48 -333 0
-49 -334 0
-50 -335 0
-51 -126 0
-52 -127 0
-53 -128 0
-54 -129 0
-55 -130 0
-51 -131 0
-52 -132 0
-53 -133 0
-54 -134 0
-55 -135 0
-51 -376 0
-52 -377 0
-53 -378 0
-54 -379 0
-55 -380 0
-51 -466 0
-52 -467 0
-53 -468 0
-54 -469 0
-55 -470 0
-51 -491 0
-52 -492 0
-53 -493 0
-54 -494 0
-55 -495 0
-56 -111 0
-57 -112 0
-58 -113 0
-59 -114 0
-60 -115 0
-56 -151 0
-57 -152 0
-58 -153 0
-59 -154 0
-60 -155 0
-56 -226 0
-57 -227 0
-58 -228 0
-59 -229 0
-60 -230 0
-56 -386 0
-57 -387 0
-58 -388 0
-59 -389 0
-60 -390 0
-56 -446 0
-57 -447 0
-58 -448 0
-59 -449 0
-60 -450 0
-61 -356 0
-62 -357 0
-63 -358 0
-64 -359 0
-65 -360 0
-61 -386 0
-62 -387 0
-63 -388 0
-64 -389 0
-65 -390 0
-61 -456 0
-62 -457 0
-63 -458 0
-64 -459 0
-65 -460 0
-66 -201 0
-67 -202 0
-68 -203 0
-69 -204 0
-70 -205 0
-66 -236 0
-67 -237 0
-68 -238 0
-69 -239 0
-70 -240 0
-66 -281 0
-67 -282 0
-68 -283 0
-69 -284 0
-70 -285 0
-66 -326 0
-67 -327 0
-68 -328 0
-69 -329 0
-70 -330 0
-66 -376 0
-67 -377 0
-68 -378 0
-69 -379 0
-70 -380 0
-66 -381 0
-67 -382 0
-68 -383 0
-69 -384 0
-70 -385 0
-66 -406 0
-67 -407 0
-68 -408 0
-69 -409 0
-70 -410 0
-66 -426 0
-67 -427 0
-68 -428 0
-69 -429 0
-70 -430 0
-66 -471 0
-67 -472 0
-68 -473 0
-69 -474 0
-70 -475 0
-71 -246 0
-72 -247 0
-73 -248 0
-74 -249 0
-75 -250 0
-71 -311 0
-72 -312 0
-73 -313 0
-74 -314 0
-75 -315 0
-71 -316 0
-72 -317 0
-73 -318 0
-74 -319 0
-75 -320 0
-71 -481 0
-72 -482 0
-73 -483 0
-74 -484 0
-75 -485 0
-76 -116 0
-77 -117 0
-78 -118 0
-79 -119 0
-80 -120 0
-76 -126 0
-77 -127 0
-78 -128 0
-79 -129 0
-80 -130 0
-76 -141 0
-77 -142 0
-78 -143 0
-79 -144 0
-80 -145 0
-76 -186 0
-77 -187 0
-78 -188 0
-79 -189 0
-80 -190 0
-76 -196 0
-77 -197 0
-78 -198 0
-79 -199 0
-80 -200 0
-76 -306 0
-77 -307 0
-78 -308 0
-79 -309 0
-80 -310 0
-76 -321 0
-77 -322 0
-78 -323 0
-79 -324 0
-80 -325 0
-76 -331 0
-77 -332 0
-78 -333 0
-79 -334 0
-80 -335 0
-76 -366 0
-77 -367 0
-78 -368 0
-79 -369 0
-80 -370 0
-76 -376 0
-77 -377 0
-78 -378 0
-79 -379 0
-80 -380 0
-81 -341 0
-82 -342 0
-83 -343 0
-84 -344 0
-85 -345 0
-81 -346 0
-82 -347 0
-83 -348 0
-84 -349 0
-85 -350 0
-81 -376 0
-82 -377 0
-83 -378 0
-84 -379 0
-85 -380 0
-86 -121 0
-87 -122 0
-88 -123 0
-89 -124 0
-90 -125 0
-86 -191 0
-87 -192 0
-88 -193 0
-89 -194 0
-90 -195 0
-86 -216 0
-87 -217 0
-88 -218 0
-89 -219 0
-90 -220 0
-86 -251 0
-87 -252 0
-88 -253 0
-89 -254 0
-90 -255 0
-86 -276 0
-87 -277 0
-88 -278 0
-89 -279 0
-90 -280 0
-86 -286 0
-87 -287 0
-88 -288 0
-89 -289 0
-90 -290 0
-86 -431 0
-87 -432 0
-88 -433 0
-89 -434 0
-90 -435 0
-86 -441 0
-87 -442 0
-88 -443 0
-89 -444 0
-90 -445 0
-86 -491 0
-87 -492 0
-88 -493 0
-89 -494 0
-90 -495 0
-86 -496 0
-87 -497 0
-88 -498 0
-89 -499 0
-90 -500 0
-91 -241 0
-92 -242 0
-93 -243 0
-94 -244 0
-95 -245 0
-91 -251 0
-92 -252 0
-93 -253 0
-94 -254 0
-95 -255 0
-91 -331 0
-92 -332 0
-93 -333 0
-94 -334 0
-95 -335 0
-91 -341 0
-92 -342 0
-93 -343 0
-94 -344 0
-95 -345 0
-91 -411 0
-92 -412 0
-93 -413 0
-94 -414 0
-95 -415 0
-91 -431 0
-92 -432 0
-93 -433 0
-94 -434 0
-95 -435 0
-91 -441 0
-92 -442 0
-93 -443 0
-94 -444 0
-95 -445 0
-91 -471 0
-92 -472 0
-93 -473 0
-94 -474 0
-95 -475 0
-96 -261 0
-97 -262 0
-98 -263 0
-99 -264 0
-100 -265 0
-96 -371 0
-97 -372 0
-98 -373 0
-99 -374 0
-100 -375 0
-96 -381 0
-97 -382 0
-98 -383 0
-99 -384 0
-100 -385 0
-96 -426 0
-97 -427 0
-98 -428 0
-99 -429 0
-100 -430 0
-101 -131 0
-102 -132 0
-103 -133 0
-104 -134 0
-105 -135 0
-101 -161 0
-102 -162 0
-103 -163 0
-104 -164 0
-105 -165 0
-101 -166 0
-102 -167 0
-103 -168 0
-104 -169 0
-105 -170 0
-101 -311 0
-102 -312 0
-103 -313 0
-104 -314 0
-105 -315 0
-101 -336 0
-102 -337 0
-103 -338 0
-104 -339 0
-105 -340 0
-101 -356 0
-102 -357 0
-103 -358 0
-104 -359 0
-105 -360 0
-101 -366 0
-102 -367 0
-103 -368 0
-104 -369 0
-105 -370 0
-101 -381 0
-102 -382 0
-103 -383 0
-104 -384 0
-105 -385 0
-101 -386 0
-102 -387 0
-103 -388 0
-104 -389 0
-105 -390 0
-101 -431 0
-102 -432 0
-103 -433 0
-104 -434 0
-105 -435 0
-106 -151 0
-107 -152 0
-108 -153 0
-109 -154 0
-110 -155 0
-106 -191 0
-107 -192 0
-108 -193 0
-109 -194 0
-110 -195 0
-106 -291 0
-107 -292 0
-108 -293 0
-109 -294 0
-110 -295 0
-106 -376 0
-107 -377 0
-108 -378 0
-109 -379 0
-110 -380 0
-106 -441 0
-107 -442 0
-108 -443 0
-109 -444 0
-110 -445 0
-111 -146 0
-112 -147 0
-113 -148 0
-114 -149 0
-115 -150 0
-111 -206 0
-112 -207 0
-113 -208 0
-114 -209 0
-115 -210 0
-111 -211 0
-112 -212 0
-113 -213 0
-114 -214 0
-115 -215 0
-111 -256 0
-112 -257 0
-113 -258 0
-114 -259 0
-115 -260 0
-111 -266 0
-112 -267 0
-113 -268 0
-114 -269 0
-115 -270 0
-111 -346 0
-112 -347 0
-113 -348 0
-114 -349 0
-115 -350 0
-116 -146 0
-117 -147 0
-118 -148 0
-119 -149 0
-120 -150 0
-116 -161 0
-117 -162 0
-118 -163 0
-119 -164 0
-120 -165 0
-116 -271 0
-117 -272 0
-118 -273 0
-119 -274 0
-120 -275 0
-116 -276 0
-117 -277 0
-118 -278 0
-119 -279 0
-120 -280 0
-116 -286 0
-117 -287 0
-118 -288 0
-119 -289 0
-120 -290 0
-116 -336 0
-117 -337 0
-118 -338 0
-119 -339 0
-120 -340 0
-116 -351 0
-117 -352 0
-118 -353 0
-119 -354 0
-120 -355 0
-116 -356 0
-117 -357 0
-118 -358 0
-119 -359 0
-120 -360 0
-116 -361 0
-117 -362 0
-118 -363 0
-119 -364 0
-120 -365 0
-116 -391 0
-117 -392 0
-118 -393 0
-119 -394 0
-120 -395 0
-116 -476 0
-117 -477 0
-118 -478 0
-119 -479 0
-120 -480 0
-121 -176 0
-122 -177 0
-123 -178 0
-124 -179 0
-125 -180 0
-121 -311 0
-122 -312 0
-123 -313 0
-124 -314 0
-125 -315 0
-121 -471 0
-122 -472 0
-123 -473 0
-124 -474 0
-125 -475 0
-121 -476 0
-122 -477 0
-123 -478 0
-124 -479 0
-125 -480 0
-126 -206 0
-127 -207 0
-128 -208 0
-129 -209 0
-130 -210 0
-126 -261 0
-127 -262 0
-128 -263 0
-129 -264 0
-130 -265 0
-126 -281 0
-127 -282 0
-128 -283 0
-129 -284 0
-130 -285 0
-126 -291 0
-127 -292 0
-128 -293 0
-129 -294 0
-130 -295 0
-126 -486 0
-127 -487 0
-128 -488 0
-129 -489 0
-130 -490 0
-131 -186 0
-132 -187 0
-133 -188 0
-134 -189 0
-135 -190 0
-131 -236 0
-132 -237 0
-133 -238 0
-134 -239 0
-135 -240 0
-131 -291 0
-132 -292 0
-133 -293 0
-134 -294 0
-135 -295 0
-131 -296 0
-132 -297 0
-133 -298 0
-134 -299 0
-135 -300 0
-131 -401 0
-132 -402 0
-133 -403 0
-134 -404 0
-135 -405 0
-136 -161 0
-137 -162 0
-138 -163 0
-139 -164 0
-140 -165 0
-136 -216 0
-137 -217 0
-138 -218 0
-139 -219 0
-140 -220 0
-136 -281 0
-137 -282 0
-138 -283 0
-139 -284 0
-140 -285 0
-136 -291 0
-137 -292 0
-138 -293 0
-139 -294 0
-140 -295 0
-141 -166 0
-142 -167 0
-143 -168 0
-144 -169 0
-145 -170 0
-141 -226 0
-142 -227 0
-143 -228 0
-144 -229 0
-145 -230 0
-141 -246 0
-142 -247 0
-143 -248 0
-144 -249 0
-145 -250 0
-141 -366 0
-142 -367 0
-143 -368 0
-144 -369 0
-145 -370 0
-141 -466 0
-142 -467 0
-143 -468 0
-144 -469 0
-145 -470 0
-141 -481 0
-142 -482 0
-143 -483 0
-144 -484 0
-145 -485 0
-146 -256 0
-147 -257 0
-148 -258 0
-149 -259 0
-150 -260 0
-151 -281 0
-152 -282 0
-153 -283 0
-154 -284 0
-155 -285 0
-151 -401 0
-152 -402 0
-153 -403 0
-154 -404 0
-155 -405 0
-151 -411 0
-152 -412 0
-153 -413 0
-154 -414 0
-155 -415 0
-151 -466 0
-152 -467 0
-153 -468 0
-154 -469 0
-155 -470 0
-156 -361 0
-157 -362 0
-158 -363 0
-159 -364 0
-160 -365 0
-156 -376 0
-157 -377 0
-158 -378 0
-159 -379 0
-160 -380 0
-156 -496 0
-157 -497 0
-158 -498 0
-159 -499 0
-160 -500 0
-161 -241 0
-162 -242 0
-163 -243 0
-164 -244 0
-165 -245 0
-161 -261 0
-162 -262 0
-163 -263 0
-164 -264 0
-165 -265 0
-161 -266 0
-162 -267 0
-163 -268 0
-164 -269 0
-165 -270 0
-161 -436 0
-162 -437 0
-163 -438 0
-164 -439 0
-165 -440 0
-161 -456 0
-162 -457 0
-163 -458 0
-164 -459 0
-165 -460 0
-161 -466 0
-162 -467 0
-163 -468 0
-164 -469 0
-165 -470 0
-166 -221 0
-167 -222 0
-168 -223 0
-169 -224 0
-170 -225 0
-166 -266 0
-167 -267 0
-168 -268 0
-169 -269 0
-170 -270 0
-166 -451 0
-167 -452 0
-168 -453 0
-169 -454 0
-170 -455 0
-171 -261 0
-172 -262 0
-173 -263 0
-174 -264 0
-175 -265 0
-171 -356 0
-172 -357 0
-173 -358 0
-174 -359 0
-175 -360 0
-171 -436 0
-172 -437 0
-173 -438 0
-174 -439 0
-175 -440 0
-176 -356 0
-177 -357 0
-178 -358 0
-179 -359 0
-180 -360 0
-176 -416 0
-177 -417 0
-178 -418 0
-179 -419 0
-180 -420 0
-176 -451 0
-177 -452 0
-178 -453 0
-179 -454 0
-180 -455 0
-176 -486 0
-177 -487 0
-178 -488 0
-179 -489 0
-180 -490 0
-181 -206 0
-182 -207 0
-183 -208 0
-184 -209 0
-185 -210 0
-181 -461 0
-182 -462 0
-183 -463 0
-184 -464 0
-185 -465 0
-181 -466 0
-182 -467 0
-183 -468 0
-184 -469 0
-185 -470 0
-186 -236 0
-187 -237 0
-188 -238 0
-189 -239 0
-190 -240 0
-186 -266 0
-187 -267 0
-188 -268 0
-189 -269 0
-190 -270 0
-186 -281 0
-187 -282 0
-188 -283 0
-189 -284 0
-190 -285 0
-186 -421 0
-187 -422 0
-188 -423 0
-189 -424 0
-190 -425 0
-186 -461 0
-187 -462 0
-188 -463 0
-189 -464 0
-190 -465 0
-186 -486 0
-187 -487 0
-188 -488 0
-189 -489 0
-190 -490 0
-191 -221 0
-192 -222 0
-193 -223 0
-194 -224 0
-195 -225 0
-191 -246 0
-192 -247 0
-193 -248 0
-194 -249 0
-195 -250 0
-191 -276 0
-192 -277 0
-193 -278 0
-194 -279 0
-195 -280 0
-191 -281 0
-192 -282 0
-193 -283 0
-194 -284 0
-195 -285 0
-191 -286 0
-192 -287 0
-193 -288 0
-194 -289 0
-195 -290 0
-191 -341 0
-192 -342 0
-193 -343 0
-194 -344 0
-195 -345 0
-191 -381 0
-192 -382 0
-193 -383 0
-194 -384 0
-195 -385 0
-191 -421 0
-192 -422 0
-193 -423 0
-194 -424 0
-195 -425 0
-191 -431 0
-192 -432 0
-193 -433 0
-194 -434 0
-195 -435 0
-191 -471 0
-192 -472 0
-193 -473 0
-194 -474 0
-195 -475 0
-191 -476 0
-192 -477 0
-193 -478 0
-194 -479 0
-195 -480 0
-196 -251 0
-197 -252 0
-198 -253 0
-199 -254 0
-200 -255 0
-196 -296 0
-197 -297 0
-198 -298 0
-199 -299 0
-200 -300 0
-196 -361 0
-197 -362 0
-198 -363 0
-199 -364 0
-200 -365 0
-196 -396 0
-197 -397 0
-198 -398 0
-199 -399 0
-200 -400 0
-196 -486 0
-197 -487 0
-198 -488 0
-199 -489 0
-200 -490 0
-201 -246 0
-202 -247 0
-203 -248 0
-204 -249 0
-205 -250 0
-201 -281 0
-202 -282 0
-203 -283 0
-204 -284 0
-205 -285 0
-201 -296 0
-202 -297 0
-203 -298 0
-204 -299 0
-205 -300 0
-201 -371 0
-202 -372 0
-203 -373 0
-204 -374 0
-205 -375 0
-201 -381 0
-202 -382 0
-203 -383 0
-204 -384 0
-205 -385 0
-201 -396 0
-202 -397 0
-203 -398 0
-204 -399 0
-205 -400 0
-206 -246 0
-207 -247 0
-208 -248 0
-209 -249 0
-210 -250 0
-206 -261 0
-207 -262 0
-208 -263 0
-209 -264 0
-210 -265 0
-206 -301 0
-207 -302 0
-208 -303 0
-209 -304 0
-210 -305 0
-206 -316 0
-207 -317 0
-208 -318 0
-209 -319 0
-210 -320 0
-206 -321 0
-207 -322 0
-208 -323 0
-209 -324 0
-210 -325 0
-206 -376 0
-207 -377 0
-208 -378 0
-209 -379 0
-210 -380 0
-211 -266 0
-212 -267 0
-213 -268 0
-214 -269 0
-215 -270 0
-211 -301 0
-212 -302 0
-213 -303 0
-214 -304 0
-215 -305 0
-211 -346 0
-212 -347 0
-213 -348 0
-214 -349 0
-215 -350 0
-211 -466 0
-212 -467 0
-213 -468 0
-214 -469 0
-215 -470 0
-216 -261 0
-217 -262 0
-218 -263 0
-219 -264 0
-220 -265 0
-216 -296 0
-217 -297 0
-218 -298 0
-219 -299 0
-220 -300 0
-216 -311 0
-217 -312 0
-218 -313 0
-219 -314 0
-220 -315 0
-216 -316 0
-217 -317 0
-218 -318 0
-219 -319 0
-220 -320 0
-216 -356 0
-217 -357 0
-218 -358 0
-219 -359 0
-220 -360 0
-216 -371 0
-217 -372 0
-218 -373 0
-219 -374 0
-220 -375 0
-216 -431 0
-217 -432 0
-218 -433 0
-219 -434 0
-220 -435 0
-216 -496 0
-217 -497 0
-218 -498 0
-219 -499 0
-220 -500 0
-221 -436 0
-222 -437 0
-223 -438 0
-224 -439 0
-225 -440 0
-226 -261 0
-227 -262 0
-228 -263 0
-229 -264 0
-230 -265 0
-226 -276 0
-227 -277 0
-228 -278 0
-229 -279 0
-230 -280 0
-226 -371 0
-227 -372 0
-228 -373 0
-229 -374 0
-230 -375 0
-226 -376 0
-227 -377 0
-228 -378 0
-229 -379 0
-230 -380 0
-226 -441 0
-227 -442 0
-228 -443 0
-229 -444 0
-230 -445 0
-231 -361 0
-232 -362 0
-233 -363 0
-234 -364 0
-235 -365 0
-231 -446 0
-232 -447 0
-233 -448 0
-234 -449 0
-235 -450 0
-236 -276 0
-237 -277 0
-238 -278 0
-239 -279 0
-240 -280 0
-236 -406 0
-237 -407 0
-238 -408 0
-239 -409 0
-240 -410 0
-236 -451 0
-237 -452 0
-238 -453 0
-239 -454 0
-240 -455 0
-241 -286 0
-242 -287 0
-243 -288 0
-244 -289 0
-245 -290 0
-241 -291 0
-242 -292 0
-243 -293 0
-244 -294 0
-245 -295 0
-241 -396 0
-242 -397 0
-243 -398 0
-244 -399 0
-245 -400 0
-241 -451 0
-242 -452 0
-243 -453 0
-244 -454 0
-245 -455 0
-241 -466 0
-242 -467 0
-243 -468 0
-244 -469 0
-245 -470 0
-246 -281 0
-247 -282 0
-248 -283 0
-249 -284 0
-250 -285 0
-246 -366 0
-247 -367 0
-248 -368 0
-249 -369 0
-250 -370 0
-246 -371 0
-247 -372 0
-248 -373 0
-249 -374 0
-250 -375 0
-246 -431 0
-247 -432 0
-248 -433 0
-249 -434 0
-250 -435 0
-246 -441 0
-247 -442 0
-248 -443 0
-249 -444 0
-250 -445 0
-251 -276 0
-252 -277 0
-253 -278 0
-254 -279 0
-255 -280 0
-251 -311 0
-252 -312 0
-253 -313 0
-254 -314 0
-255 -315 0
-251 -366 0
-252 -367 0
-253 -368 0
-254 -369 0
-255 -370 0
-256 -296 0
-257 -297 0
-258 -298 0
-259 -299 0
-260 -300 0
-256 -421 0
-257 -422 0
-258 -423 0
-259 -424 0
-260 -425 0
-256 -451 0
-257 -452 0
-258 -453 0
-259 -454 0
-260 -455 0
-256 -476 0
-257 -477 0
-258 -478 0
-259 -479 0
-260 -480 0
-261 -316 0
-262 -317 0
-263 -318 0
-264 -319 0
-265 -320 0
-261 -336 0
-262 -337 0
-263 -338 0
-264 -339 0
-265 -340 0
-261 -461 0
-262 -462 0
-263 -463 0
-264 -464 0
-265 -465 0
-261 -471 0
-262 -472 0
-263 -473 0
-264 -474 0
-265 -475 0
-266 -291 0
-267 -292 0
-268 -293 0
-269 -294 0
-270 -295 0
-266 -331 0
-267 -332 0
-268 -333 0
-269 -334 0
-270 -335 0
-266 -366 0
-267 -367 0
-268 -368 0
-269 -369 0
-270 -370 0
-266 -431 0
-267 -432 0
-268 -433 0
-269 -434 0
-270 -435 0
-271 -351 0
-272 -352 0
-273 -353 0
-274 -354 0
-275 -355 0
-271 -421 0
-272 -422 0
-273 -423 0
-274 -424 0
-275 -425 0
-271 -451 0
-272 -452 0
-273 -453 0
-274 -454 0
-275 -455 0
-271 -481 0
-272 -482 0
-273 -483 0
-274 -484 0
-275 -485 0
-276 -341 0
-277 -342 0
-278 -343 0
-279 -344 0
-280 -345 0
-276 -416 0
-277 -417 0
-278 -418 0
-279 -419 0
-280 -420 0
-276 -461 0
-277 -462 0
-278 -463 0
-279 -464 0
-280 -465 0
-281 -346 0
-282 -347 0
-283 -348 0
-284 -349 0
-285 -350 0
-286 -321 0
-287 -322 0
-288 -323 0
-289 -324 0
-290 -325 0
-286 -351 0
-287 -352 0
-288 -353 0
-289 -354 0
-290 -355 0
-286 -411 0
-287 -412 0
-288 -413 0
-289 -414 0
-290 -415 0
-286 -451 0
-287 -452 0
-288 -453 0
-289 -454 0
-290 -455 0
-286 -456 0
-287 -457 0
-288 -458 0
-289 -459 0
-290 -460 0
-291 -396 0
-292 -397 0
-293 -398 0
-294 -399 0
-295 -400 0
-296 -321 0
-297 -322 0
-298 -323 0
-299 -324 0
-300 -325 0
-296 -326 0
-297 -327 0
-298 -328 0
-299 -329 0
-300 -330 0
-296 -341 0
-297 -342 0
-298 -343 0
-299 -344 0
-300 -345 0
-296 -401 0
-297 -402 0
-298 -403 0
-299 -404 0
-300 -405 0
-296 -411 0
-297 -412 0
-298 -413 0
-299 -414 0
-300 -415 0
-296 -436 0
-297 -437 0
-298 -438 0
-299 -439 0
-300 -440 0
-306 -426 0
-307 -427 0
-308 -428 0
-309 -429 0
-310 -430 0
-306 -491 0
-307 -492 0
-308 -493 0
-309 -494 0
-310 -495 0
-311 -376 0
-312 -377 0
-313 -378 0
-314 -379 0
-315 -380 0
-311 -406 0
-312 -407 0
-313 -408 0
-314 -409 0
-315 -410 0
-311 -411 0
-312 -412 0
-313 -413 0
-314 -414 0
-315 -415 0
-311 -446 0
-312 -447 0
-313 -448 0
-314 -449 0
-315 -450 0
-316 -341 0
-317 -342 0
-318 -343 0
-319 -344 0
-320 -345 0
-316 -456 0
-317 -457 0
-318 -458 0
-319 -459 0
-320 -460 0
-321 -351 0
-322 -352 0
-323 -353 0
-324 -354 0
-325 -355 0
-321 -376 0
-322 -377 0
-323 -378 0
-324 -379 0
-325 -380 0
-321 -451 0
-322 -452 0
-323 -453 0
-324 -454 0
-325 -455 0
-321 -461 0
-322 -462 0
-323 -463 0
-324 -464 0
-325 -465 0
-321 -486 0
-322 -487 0
-323 -488 0
-324 -489 0
-325 -490 0
-331 -391 0
-332 -392 0
-333 -393 0
-334 -394 0
-335 -395 0
-331 -396 0
-332 -397 0
-333 -398 0
-334 -399 0
-335 -400 0
-336 -371 0
-337 -372 0
-338 -373 0
-339 -374 0
-340 -375 0
-336 -401 0
-337 -402 0
-338 -403 0
-339 -404 0
-340 -405 0
-336 -481 0
-337 -482 0
-338 -483 0
-339 -484 0
-340 -485 0
-341 -486 0
-342 -487 0
-343 -488 0
-344 -489 0
-345 -490 0
-346 -416 0
-347 -417 0
-348 -418 0
-349 -419 0
-350 -420 0
-346 -451 0
-347 -452 0
-348 -453 0
-349 -454 0
-350 -455 0
-346 -476 0
-347 -477 0
-348 -478 0
-349 -479 0
-350 -480 0
-351 -411 0
-352 -412 0
-353 -413 0
-354 -414 0
-355 -415 0
-351 -441 0
-352 -442 0
-353 -443 0
-354 -444 0
-355 -445 0
-356 -391 0
-357 -392 0
-358 -393 0
-359 -394 0
-360 -395 0
-356 -411 0
-357 -412 0
-358 -413 0
-359 -414 0
-360 -415 0
-356 -416 0
-357 -417 0
-358 -418 0
-359 -419 0
-360 -420 0
-356 -436 0
-357 -437 0
-358 -438 0
-359 -439 0
-360 -440 0
-356 -451 0
-357 -452 0
-358 -453 0
-359 -454 0
-360 -455 0
-361 -406 0
-362 -407 0
-363 -408 0
-364 -409 0
-365 -410 0
-366 -396 0
-367 -397 0
-368 -398 0
-369 -399 0
-370 -400 0
-366 -496 0
-367 -497 0
-368 -498 0
-369 -499 0
-370 -500 0
-371 -416 0
-372 -417 0
-373 -418 0
-374 -419 0
-375 -420 0
-376 -481 0
-377 -482 0
-378 -483 0
-379 -484 0
-380 -485 0
-381 -426 0
-382 -427 0
-383 -428 0
-384 -429 0
-385 -430 0
-386 -431 0
-387 -432 0
-388 -433 0
-389 -434 0
-390 -435 0
-386 -436 0
-387 -437 0
-388 -438 0
-389 -439 0
-390 -440 0
-391 -451 0
-392 -452 0
-393 -453 0
-394 -454 0
-395 -455 0
-391 -481 0
-392 -482 0
-393 -483 0
-394 -484 0
-395 -485 0
-396 -421 0
-397 -422 0
-398 -423 0
-399 -424 0
-400 -425 0
-396 -446 0
-397 -447 0
-398 -448 0
-399 -449 0
-400 -450 0
-401 -446 0
-402 -447 0
-403 -448 0
-404 -449 0
-405 -450 0
-401 -451 0
-402 -452 0
-403 -453 0
-404 -454 0
-405 -455 0
-406 -471 0
-407 -472 0
-408 -473 0
-409 -474 0
-410 -475 0
-411 -446 0
-412 -447 0
-413 -448 0
-414 -449 0
-415 -450 0
-421 -481 0
-422 -482 0
-423 -483 0
-424 -484 0
-425 -485 0
-441 -481 0
-442 -482 0
-443 -483 0
-444 -484 0
-445 -485 0
-466 -496 0
-467 -497 0
-468 -498 0
-469 -499 0
-470 -500 0
